docs/2022-03-21-ModelsBigM/BigMLazyCon_12.lp
\ENCODING=ISO-8859-1
\Problem name: ilog.cplex

Minimize
 obj: _164step1#20 + _164step2#21 + _164step3#22 + _165step1#43 + _165step2#44
      + _165step3#45 + _89step1#60 + _89step2#61 + _89step3#62 + _153step1#76
      + _153step2#77 + _153step3#78 + _154step1#86 + _154step2#87
      + _154step3#88
Subject To
 LB_164T25#0:                    _164T25#0 >= 2704
 LB_164T24#1:                    _164T24#1 >= 2916
 prec_164T24_164T25#2:           - _164T25#0 + _164T24#1 >= 212
 LB_164T23#3:                    _164T23#2 >= 3094
 prec_164T23_164T24#4:           - _164T24#1 + _164T23#2 >= 178
 LB_164T22#5:                    _164T22#3 >= 3274
 prec_164T22_164T23#6:           - _164T23#2 + _164T22#3 >= 180
 LB_164T21#7:                    _164T21#4 >= 3454
 prec_164T21_164T22#8:           - _164T22#3 + _164T21#4 >= 180
 LB_164T20#9:                    _164T20#5 >= 3603
 prec_164T20_164T21#10:          - _164T21#4 + _164T20#5 >= 149
 LB_164T19#11:                   _164T19#6 >= 3648
 prec_164T19_164T20#12:          - _164T20#5 + _164T19#6 >= 45
 LB_164T18#13:                   _164T18#7 >= 3904
 prec_164T18_164T19#14:          - _164T19#6 + _164T18#7 >= 256
 LB_164T17#15:                   _164T17#8 >= 4234
 prec_164T17_164T18#16:          - _164T18#7 + _164T17#8 >= 330
 LB_164T16#17:                   _164T16#9 >= 4474
 prec_164T16_164T17#18:          - _164T17#8 + _164T16#9 >= 240
 LB_164T15#19:                   _164T15#10 >= 4714
 prec_164T15_164T16#20:          - _164T16#9 + _164T15#10 >= 240
 LB_164T14#21:                   _164T14#11 >= 4894
 prec_164T14_164T15#22:          - _164T15#10 + _164T14#11 >= 180
 LB_164T13#23:                   _164T13#12 >= 5102
 prec_164T13_164T14#24:          - _164T14#11 + _164T13#12 >= 208
 LB_164T12#25:                   _164T12#13 >= 5182
 prec_164T12_164T13#26:          - _164T13#12 + _164T12#13 >= 80
 LB_164T11#27:                   _164T11#14 >= 5384
 prec_164T11_164T12#28:          - _164T12#13 + _164T11#14 >= 202
 LB_164T10#29:                   _164T10#15 >= 5904
 prec_164T10_164T11#30:          - _164T11#14 + _164T10#15 >= 520
 LB_164T9#31:                    _164T9#16 >= 6144
 prec_164T9_164T10#32:           - _164T10#15 + _164T9#16 >= 240
 LB_164T8#33:                    _164T8#17 >= 6414
 prec_164T8_164T9#34:            - _164T9#16 + _164T8#17 >= 270
 LB_164T7#35:                    _164T7#18 >= 6744
 prec_164T7_164T8#36:            - _164T8#17 + _164T7#18 >= 330
 LB_164T6#37:                    _164T6#19 >= 6924
 prec_164T6_164T7#38:            - _164T7#18 + _164T6#19 >= 180
 _164step1#39:                   _164T6#19 - 93354 _164step1#20 <= 6924
 _164step2#40:                   _164T6#19 - 93174 _164step2#21 <= 7104
 _164step3#41:                   _164T6#19 - 92994 _164step3#22 <= 7284
 LB_165T6#42:                    _165T6#23 >= 544
 LB_165T7#43:                    _165T7#24 >= 844
 prec_165T7_165T6#44:            - _165T6#23 + _165T7#24 >= 300
 LB_165T8#45:                    _165T8#25 >= 1024
 prec_165T8_165T7#46:            - _165T7#24 + _165T8#25 >= 180
 LB_165T9#47:                    _165T9#26 >= 1324
 prec_165T9_165T8#48:            - _165T8#25 + _165T9#26 >= 300
 LB_165T10#49:                   _165T10#27 >= 1564
 prec_165T10_165T9#50:           - _165T9#26 + _165T10#27 >= 240
 LB_165T11#51:                   _165T11#28 >= 1804
 prec_165T11_165T10#52:          - _165T10#27 + _165T11#28 >= 240
 LB_165T12#53:                   _165T12#29 >= 2164
 prec_165T12_165T11#54:          - _165T11#28 + _165T12#29 >= 360
 LB_165T13#55:                   _165T13#30 >= 2271
 prec_165T13_165T12#56:          - _165T12#29 + _165T13#30 >= 107
 LB_165T14#57:                   _165T14#31 >= 2343
 prec_165T14_165T13#58:          - _165T13#30 + _165T14#31 >= 72
 LB_165T15#59:                   _165T15#32 >= 2584
 prec_165T15_165T14#60:          - _165T14#31 + _165T15#32 >= 241
 LB_165T16#61:                   _165T16#33 >= 2764
 prec_165T16_165T15#62:          - _165T15#32 + _165T16#33 >= 180
 LB_165T17#63:                   _165T17#34 >= 2884
 prec_165T17_165T16#64:          - _165T16#33 + _165T17#34 >= 120
 LB_165T18#65:                   _165T18#35 >= 3064
 prec_165T18_165T17#66:          - _165T17#34 + _165T18#35 >= 180
 LB_165T19#67:                   _165T19#36 >= 3544
 prec_165T19_165T18#68:          - _165T18#35 + _165T19#36 >= 480
 LB_165T20#69:                   _165T20#37 >= 3634
 prec_165T20_165T19#70:          - _165T19#36 + _165T20#37 >= 90
 LB_165T21#71:                   _165T21#38 >= 3664
 prec_165T21_165T20#72:          - _165T20#37 + _165T21#38 >= 30
 LB_165T22#73:                   _165T22#39 >= 3844
 prec_165T22_165T21#74:          - _165T21#38 + _165T22#39 >= 180
 LB_165T23#75:                   _165T23#40 >= 3964
 prec_165T23_165T22#76:          - _165T22#39 + _165T23#40 >= 120
 LB_165T24#77:                   _165T24#41 >= 4084
 prec_165T24_165T23#78:          - _165T23#40 + _165T24#41 >= 120
 LB_165T25#79:                   _165T25#42 >= 4194
 prec_165T25_165T24#80:          - _165T24#41 + _165T25#42 >= 110
 _165step1#81:                   _165T25#42 - 93354 _165step1#43 <= 4194
 _165step2#82:                   _165T25#42 - 93174 _165step2#44 <= 4374
 _165step3#83:                   _165T25#42 - 92994 _165step3#45 <= 4554
 LB_89T14#84:                    _89T14#46 >= 154
 LB_89T13#85:                    _89T13#47 >= 371
 prec_89T13_89T14#86:            - _89T14#46 + _89T13#47 >= 217
 LB_89T12#87:                    _89T12#48 >= 479
 prec_89T12_89T13#88:            - _89T13#47 + _89T12#48 >= 108
 LB_89T11#89:                    _89T11#49 >= 641
 prec_89T11_89T12#90:            - _89T12#48 + _89T11#49 >= 162
 LB_89T10#91:                    _89T10#50 >= 1066
 prec_89T10_89T11#92:            - _89T11#49 + _89T10#50 >= 425
 LB_89T9#93:                     _89T9#51 >= 1366
 prec_89T9_89T10#94:             - _89T10#50 + _89T9#51 >= 300
 LB_89T8#95:                     _89T8#52 >= 2192
 prec_89T8_89T9#96:              - _89T9#51 + _89T8#52 >= 826
 LB_89T7#97:                     _89T7#53 >= 2895
 prec_89T7_89T8#98:              - _89T8#52 + _89T7#53 >= 703
 LB_89T6#99:                     _89T6#54 >= 3136
 prec_89T6_89T7#100:             - _89T7#53 + _89T6#54 >= 241
 LB_89T5#101:                    _89T5#55 >= 16352
 prec_89T5_89T6#102:             - _89T6#54 + _89T5#55 >= 13216
 LB_89T4#103:                    _89T4#56 >= 23102
 prec_89T4_89T5#104:             - _89T5#55 + _89T4#56 >= 6750
 LB_89T3#105:                    _89T3#57 >= 23382
 prec_89T3_89T4#106:             - _89T4#56 + _89T3#57 >= 280
 LB_89T2#107:                    _89T2#58 >= 24512
 prec_89T2_89T3#108:             - _89T3#57 + _89T2#58 >= 1130
 LB_89T1#109:                    _89T1#59 >= 25276
 prec_89T1_89T2#110:             - _89T2#58 + _89T1#59 >= 764
 _89step1#111:                   _89T1#59 - 93354 _89step1#60 <= 25122
 _89step2#112:                   _89T1#59 - 93174 _89step2#61 <= 25302
 _89step3#113:                   _89T1#59 - 92994 _89step3#62 <= 25482
 LB_153T18#114:                  _153T18#63 >= 4
 LB_153T17#115:                  _153T17#64 >= 334
 prec_153T17_153T18#116:         - _153T18#63 + _153T17#64 >= 330
 LB_153T16#117:                  _153T16#65 >= 574
 prec_153T16_153T17#118:         - _153T17#64 + _153T16#65 >= 240
 LB_153T15#119:                  _153T15#66 >= 814
 prec_153T15_153T16#120:         - _153T16#65 + _153T15#66 >= 240
 LB_153T14#121:                  _153T14#67 >= 994
 prec_153T14_153T15#122:         - _153T15#66 + _153T14#67 >= 180
 LB_153T13#123:                  _153T13#68 >= 1202
 prec_153T13_153T14#124:         - _153T14#67 + _153T13#68 >= 208
 LB_153T12#125:                  _153T12#69 >= 1282
 prec_153T12_153T13#126:         - _153T13#68 + _153T12#69 >= 80
 LB_153T11#127:                  _153T11#70 >= 1484
 prec_153T11_153T12#128:         - _153T12#69 + _153T11#70 >= 202
 LB_153T10#129:                  _153T10#71 >= 2364
 prec_153T10_153T11#130:         - _153T11#70 + _153T10#71 >= 880
 LB_153T9#131:                   _153T9#72 >= 2784
 prec_153T9_153T10#132:          - _153T10#71 + _153T9#72 >= 420
 LB_153T8#133:                   _153T8#73 >= 3054
 prec_153T8_153T9#134:           - _153T9#72 + _153T8#73 >= 270
 LB_153T7#135:                   _153T7#74 >= 3384
 prec_153T7_153T8#136:           - _153T8#73 + _153T7#74 >= 330
 LB_153T6#137:                   _153T6#75 >= 3564
 prec_153T6_153T7#138:           - _153T7#74 + _153T6#75 >= 180
 _153step1#139:                  _153T6#75 - 93354 _153step1#76 <= 3564
 _153step2#140:                  _153T6#75 - 93174 _153step2#77 <= 3744
 _153step3#141:                  _153T6#75 - 92994 _153step3#78 <= 3924
 LB_154T19#142:                  _154T19#79 >= 56
 LB_154T20#143:                  _154T20#80 >= 146
 prec_154T20_154T19#144:         - _154T19#79 + _154T20#80 >= 90
 LB_154T21#145:                  _154T21#81 >= 176
 prec_154T21_154T20#146:         - _154T20#80 + _154T21#81 >= 30
 LB_154T22#147:                  _154T22#82 >= 356
 prec_154T22_154T21#148:         - _154T21#81 + _154T22#82 >= 180
 LB_154T23#149:                  _154T23#83 >= 476
 prec_154T23_154T22#150:         - _154T22#82 + _154T23#83 >= 120
 LB_154T24#151:                  _154T24#84 >= 596
 prec_154T24_154T23#152:         - _154T23#83 + _154T24#84 >= 120
 LB_154T25#153:                  _154T25#85 >= 706
 prec_154T25_154T24#154:         - _154T24#84 + _154T25#85 >= 110
 _154step1#155:                  _154T25#85 - 93354 _154step1#86 <= 650
 _154step2#156:                  _154T25#85 - 93174 _154step2#87 <= 830
 _154step3#157:                  _154T25#85 - 92994 _154step3#88 <= 1010
 InitiDisj_89T6_vs_153T6#158:    - _89T6#54 + _153T6#75
                                 + 93354 _89T6prec153T6#89 >= 6856
 InitiDisj_153T6_vs_89T6#159:    _89T6#54 - _153T6#75 - 93354 _89T6prec153T6#89
                                 >= -92934
 InitiDisj_89T6_vs_164T6#160:    _164T6#19 - _89T6#54 + 93354 _89T6prec164T6#90
                                 >= 6856
 InitiDisj_164T6_vs_89T6#161:    - _164T6#19 + _89T6#54
                                 - 93354 _89T6prec164T6#90 >= -92934
 Domain_89T6_vs_165T6#162:       _89T6prec165T6#91 >= 0
 Domain_153T6_vs_164T6#163:      _153T6prec164T6#92 >= 0
 Domain_153T6_vs_165T6#164:      _153T6prec165T6#93 >= 0
 Domain_164T6_vs_165T6#165:      _164T6prec165T6#94 >= 0
 Domain_89T7_vs_153T7#166:       _89T7prec153T7#95 >= 0
 Domain_89T7_vs_164T7#167:       _89T7prec164T7#96 >= 0
 Domain_89T7_vs_165T7#168:       _89T7prec165T7#97 >= 0
 Domain_153T7_vs_164T7#169:      _153T7prec164T7#98 >= 0
 Domain_153T7_vs_165T7#170:      _153T7prec165T7#99 >= 0
 Domain_164T7_vs_165T7#171:      _164T7prec165T7#100 >= 0
 Domain_89T8_vs_153T8#172:       _89T8prec153T8#101 >= 0
 Domain_89T8_vs_164T8#173:       _89T8prec164T8#102 >= 0
 Domain_89T8_vs_165T8#174:       _89T8prec165T8#103 >= 0
 Domain_153T8_vs_164T8#175:      _153T8prec164T8#104 >= 0
 Domain_153T8_vs_165T8#176:      _153T8prec165T8#105 >= 0
 Domain_164T8_vs_165T8#177:      _164T8prec165T8#106 >= 0
 Domain_89T9_vs_153T9#178:       _89T9prec153T9#107 >= 0
 Domain_89T9_vs_164T9#179:       _89T9prec164T9#108 >= 0
 InitiDisj_89T9_vs_165T9#180:    _165T9#26 - _89T9#51
                                 + 93354 _89T9prec165T9#109 >= 586
 InitiDisj_165T9_vs_89T9#181:    - _165T9#26 + _89T9#51
                                 - 93354 _89T9prec165T9#109 >= -93114
 Domain_153T9_vs_164T9#182:      _153T9prec164T9#110 >= 0
 Domain_153T9_vs_165T9#183:      _153T9prec165T9#111 >= 0
 Domain_164T9_vs_165T9#184:      _164T9prec165T9#112 >= 0
 Domain_89T10_vs_153T10#185:     _89T10prec153T10#113 >= 0
 Domain_89T10_vs_164T10#186:     _89T10prec164T10#114 >= 0
 Domain_89T10_vs_165T10#187:     _89T10prec165T10#115 >= 0
 Domain_153T10_vs_164T10#188:    _153T10prec164T10#116 >= 0
 Domain_153T10_vs_165T10#189:    _153T10prec165T10#117 >= 0
 Domain_164T10_vs_165T10#190:    _164T10prec165T10#118 >= 0
 Domain_89T11_vs_153T11#191:     _89T11prec153T11#119 >= 0
 Domain_89T11_vs_164T11#192:     _89T11prec164T11#120 >= 0
 Domain_89T11_vs_165T11#193:     _89T11prec165T11#121 >= 0
 Domain_153T11_vs_164T11#194:    _153T11prec164T11#122 >= 0
 InitiDisj_153T11_vs_165T11#195: _165T11#28 - _153T11#70
                                 + 93354 _153T11prec165T11#123 >= 700
 InitiDisj_165T11_vs_153T11#196: - _165T11#28 + _153T11#70
                                 - 93354 _153T11prec165T11#123 >= -93034
 Domain_164T11_vs_165T11#197:    _164T11prec165T11#124 >= 0
 Domain_89T12_vs_153T12#198:     _89T12prec153T12#125 >= 0
 Domain_89T12_vs_164T12#199:     _89T12prec164T12#126 >= 0
 Domain_89T12_vs_165T12#200:     _89T12prec165T12#127 >= 0
 Domain_153T12_vs_164T12#201:    _153T12prec164T12#128 >= 0
 Domain_153T12_vs_165T12#202:    _153T12prec165T12#129 >= 0
 Domain_164T12_vs_165T12#203:    _164T12prec165T12#130 >= 0
 Domain_89T13_vs_153T13#204:     _89T13prec153T13#131 >= 0
 Domain_89T13_vs_164T13#205:     _89T13prec164T13#132 >= 0
 Domain_89T13_vs_165T13#206:     _89T13prec165T13#133 >= 0
 Domain_153T13_vs_164T13#207:    _153T13prec164T13#134 >= 0
 Domain_153T13_vs_165T13#208:    _153T13prec165T13#135 >= 0
 Domain_164T13_vs_165T13#209:    _164T13prec165T13#136 >= 0
 Domain_89T14_vs_153T14#210:     _89T14prec153T14#137 >= 0
 Domain_89T14_vs_164T14#211:     _89T14prec164T14#138 >= 0
 Domain_89T14_vs_165T14#212:     _89T14prec165T14#139 >= 0
 Domain_153T14_vs_164T14#213:    _153T14prec164T14#140 >= 0
 Domain_153T14_vs_165T14#214:    _153T14prec165T14#141 >= 0
 Domain_164T14_vs_165T14#215:    _164T14prec165T14#142 >= 0
 Domain_153T15_vs_164T15#216:    _153T15prec164T15#143 >= 0
 Domain_153T15_vs_165T15#217:    _153T15prec165T15#144 >= 0
 Domain_164T15_vs_165T15#218:    _164T15prec165T15#145 >= 0
 Domain_153T16_vs_164T16#219:    _153T16prec164T16#146 >= 0
 Domain_153T16_vs_165T16#220:    _153T16prec165T16#147 >= 0
 Domain_164T16_vs_165T16#221:    _164T16prec165T16#148 >= 0
 Domain_153T17_vs_164T17#222:    _153T17prec164T17#149 >= 0
 Domain_153T17_vs_165T17#223:    _153T17prec165T17#150 >= 0
 Domain_164T17_vs_165T17#224:    _164T17prec165T17#151 >= 0
 Domain_153T18_vs_164T18#225:    _153T18prec164T18#152 >= 0
 Domain_153T18_vs_165T18#226:    _153T18prec165T18#153 >= 0
 Domain_164T18_vs_165T18#227:    _164T18prec165T18#154 >= 0
 Domain_154T19_vs_164T19#228:    _154T19prec164T19#155 >= 0
 Domain_154T19_vs_165T19#229:    _154T19prec165T19#156 >= 0
 Domain_164T19_vs_165T19#230:    _164T19prec165T19#157 >= 0
 Domain_154T20_vs_164T20#231:    _154T20prec164T20#158 >= 0
 Domain_154T20_vs_165T20#232:    _154T20prec165T20#159 >= 0
 InitiDisj_164T20_vs_165T20#233: - _164T20#5 + _165T20#37
                                 + 93354 _164T20prec165T20#160 >= 45
 InitiDisj_165T20_vs_164T20#234: _164T20#5 - _165T20#37
                                 - 93354 _164T20prec165T20#160 >= -93324
 Domain_154T21_vs_164T21#235:    _154T21prec164T21#161 >= 0
 Domain_154T21_vs_165T21#236:    _154T21prec165T21#162 >= 0
 Domain_164T21_vs_165T21#237:    _164T21prec165T21#163 >= 0
 Domain_154T22_vs_164T22#238:    _154T22prec164T22#164 >= 0
 Domain_154T22_vs_165T22#239:    _154T22prec165T22#165 >= 0
 Domain_164T22_vs_165T22#240:    _164T22prec165T22#166 >= 0
 Domain_154T23_vs_164T23#241:    _154T23prec164T23#167 >= 0
 Domain_154T23_vs_165T23#242:    _154T23prec165T23#168 >= 0
 Domain_164T23_vs_165T23#243:    _164T23prec165T23#169 >= 0
 Domain_154T24_vs_164T24#244:    _154T24prec164T24#170 >= 0
 Domain_154T24_vs_165T24#245:    _154T24prec165T24#171 >= 0
 Domain_164T24_vs_165T24#246:    _164T24prec165T24#172 >= 0
 Domain_154T25_vs_164T25#247:    _154T25prec164T25#173 >= 0
 Domain_154T25_vs_165T25#248:    _154T25prec165T25#174 >= 0
 Domain_164T25_vs_165T25#249:    _164T25prec165T25#175 >= 0
Bounds
 0 <= _164T25#0 <= 2147483647
 0 <= _164T24#1 <= 2147483647
 0 <= _164T23#2 <= 2147483647
 0 <= _164T22#3 <= 2147483647
 0 <= _164T21#4 <= 2147483647
 0 <= _164T20#5 <= 2147483647
 0 <= _164T19#6 <= 2147483647
 0 <= _164T18#7 <= 2147483647
 0 <= _164T17#8 <= 2147483647
 0 <= _164T16#9 <= 2147483647
 0 <= _164T15#10 <= 2147483647
 0 <= _164T14#11 <= 2147483647
 0 <= _164T13#12 <= 2147483647
 0 <= _164T12#13 <= 2147483647
 0 <= _164T11#14 <= 2147483647
 0 <= _164T10#15 <= 2147483647
 0 <= _164T9#16 <= 2147483647
 0 <= _164T8#17 <= 2147483647
 0 <= _164T7#18 <= 2147483647
 0 <= _164T6#19 <= 2147483647
 0 <= _164step1#20 <= 1
 0 <= _164step2#21 <= 1
 0 <= _164step3#22 <= 1
 0 <= _165T6#23 <= 2147483647
 0 <= _165T7#24 <= 2147483647
 0 <= _165T8#25 <= 2147483647
 0 <= _165T9#26 <= 2147483647
 0 <= _165T10#27 <= 2147483647
 0 <= _165T11#28 <= 2147483647
 0 <= _165T12#29 <= 2147483647
 0 <= _165T13#30 <= 2147483647
 0 <= _165T14#31 <= 2147483647
 0 <= _165T15#32 <= 2147483647
 0 <= _165T16#33 <= 2147483647
 0 <= _165T17#34 <= 2147483647
 0 <= _165T18#35 <= 2147483647
 0 <= _165T19#36 <= 2147483647
 0 <= _165T20#37 <= 2147483647
 0 <= _165T21#38 <= 2147483647
 0 <= _165T22#39 <= 2147483647
 0 <= _165T23#40 <= 2147483647
 0 <= _165T24#41 <= 2147483647
 0 <= _165T25#42 <= 2147483647
 0 <= _165step1#43 <= 1
 0 <= _165step2#44 <= 1
 0 <= _165step3#45 <= 1
 0 <= _89T14#46 <= 2147483647
 0 <= _89T13#47 <= 2147483647
 0 <= _89T12#48 <= 2147483647
 0 <= _89T11#49 <= 2147483647
 0 <= _89T10#50 <= 2147483647
 0 <= _89T9#51 <= 2147483647
 0 <= _89T8#52 <= 2147483647
 0 <= _89T7#53 <= 2147483647
 0 <= _89T6#54 <= 2147483647
 0 <= _89T5#55 <= 2147483647
 0 <= _89T4#56 <= 2147483647
 0 <= _89T3#57 <= 2147483647
 0 <= _89T2#58 <= 2147483647
 0 <= _89T1#59 <= 2147483647
 0 <= _89step1#60 <= 1
 0 <= _89step2#61 <= 1
 0 <= _89step3#62 <= 1
 0 <= _153T18#63 <= 2147483647
 0 <= _153T17#64 <= 2147483647
 0 <= _153T16#65 <= 2147483647
 0 <= _153T15#66 <= 2147483647
 0 <= _153T14#67 <= 2147483647
 0 <= _153T13#68 <= 2147483647
 0 <= _153T12#69 <= 2147483647
 0 <= _153T11#70 <= 2147483647
 0 <= _153T10#71 <= 2147483647
 0 <= _153T9#72 <= 2147483647
 0 <= _153T8#73 <= 2147483647
 0 <= _153T7#74 <= 2147483647
 0 <= _153T6#75 <= 2147483647
 0 <= _153step1#76 <= 1
 0 <= _153step2#77 <= 1
 0 <= _153step3#78 <= 1
 0 <= _154T19#79 <= 2147483647
 0 <= _154T20#80 <= 2147483647
 0 <= _154T21#81 <= 2147483647
 0 <= _154T22#82 <= 2147483647
 0 <= _154T23#83 <= 2147483647
 0 <= _154T24#84 <= 2147483647
 0 <= _154T25#85 <= 2147483647
 0 <= _154step1#86 <= 1
 0 <= _154step2#87 <= 1
 0 <= _154step3#88 <= 1
 0 <= _89T6prec153T6#89 <= 1
 0 <= _89T6prec164T6#90 <= 1
 0 <= _89T6prec165T6#91 <= 1
 0 <= _153T6prec164T6#92 <= 1
 0 <= _153T6prec165T6#93 <= 1
 0 <= _164T6prec165T6#94 <= 1
 0 <= _89T7prec153T7#95 <= 1
 0 <= _89T7prec164T7#96 <= 1
 0 <= _89T7prec165T7#97 <= 1
 0 <= _153T7prec164T7#98 <= 1
 0 <= _153T7prec165T7#99 <= 1
 0 <= _164T7prec165T7#100 <= 1
 0 <= _89T8prec153T8#101 <= 1
 0 <= _89T8prec164T8#102 <= 1
 0 <= _89T8prec165T8#103 <= 1
 0 <= _153T8prec164T8#104 <= 1
 0 <= _153T8prec165T8#105 <= 1
 0 <= _164T8prec165T8#106 <= 1
 0 <= _89T9prec153T9#107 <= 1
 0 <= _89T9prec164T9#108 <= 1
 0 <= _89T9prec165T9#109 <= 1
 0 <= _153T9prec164T9#110 <= 1
 0 <= _153T9prec165T9#111 <= 1
 0 <= _164T9prec165T9#112 <= 1
 0 <= _89T10prec153T10#113 <= 1
 0 <= _89T10prec164T10#114 <= 1
 0 <= _89T10prec165T10#115 <= 1
 0 <= _153T10prec164T10#116 <= 1
 0 <= _153T10prec165T10#117 <= 1
 0 <= _164T10prec165T10#118 <= 1
 0 <= _89T11prec153T11#119 <= 1
 0 <= _89T11prec164T11#120 <= 1
 0 <= _89T11prec165T11#121 <= 1
 0 <= _153T11prec164T11#122 <= 1
 0 <= _153T11prec165T11#123 <= 1
 0 <= _164T11prec165T11#124 <= 1
 0 <= _89T12prec153T12#125 <= 1
 0 <= _89T12prec164T12#126 <= 1
 0 <= _89T12prec165T12#127 <= 1
 0 <= _153T12prec164T12#128 <= 1
 0 <= _153T12prec165T12#129 <= 1
 0 <= _164T12prec165T12#130 <= 1
 0 <= _89T13prec153T13#131 <= 1
 0 <= _89T13prec164T13#132 <= 1
 0 <= _89T13prec165T13#133 <= 1
 0 <= _153T13prec164T13#134 <= 1
 0 <= _153T13prec165T13#135 <= 1
 0 <= _164T13prec165T13#136 <= 1
 0 <= _89T14prec153T14#137 <= 1
 0 <= _89T14prec164T14#138 <= 1
 0 <= _89T14prec165T14#139 <= 1
 0 <= _153T14prec164T14#140 <= 1
 0 <= _153T14prec165T14#141 <= 1
 0 <= _164T14prec165T14#142 <= 1
 0 <= _153T15prec164T15#143 <= 1
 0 <= _153T15prec165T15#144 <= 1
 0 <= _164T15prec165T15#145 <= 1
 0 <= _153T16prec164T16#146 <= 1
 0 <= _153T16prec165T16#147 <= 1
 0 <= _164T16prec165T16#148 <= 1
 0 <= _153T17prec164T17#149 <= 1
 0 <= _153T17prec165T17#150 <= 1
 0 <= _164T17prec165T17#151 <= 1
 0 <= _153T18prec164T18#152 <= 1
 0 <= _153T18prec165T18#153 <= 1
 0 <= _164T18prec165T18#154 <= 1
 0 <= _154T19prec164T19#155 <= 1
 0 <= _154T19prec165T19#156 <= 1
 0 <= _164T19prec165T19#157 <= 1
 0 <= _154T20prec164T20#158 <= 1
 0 <= _154T20prec165T20#159 <= 1
 0 <= _164T20prec165T20#160 <= 1
 0 <= _154T21prec164T21#161 <= 1
 0 <= _154T21prec165T21#162 <= 1
 0 <= _164T21prec165T21#163 <= 1
 0 <= _154T22prec164T22#164 <= 1
 0 <= _154T22prec165T22#165 <= 1
 0 <= _164T22prec165T22#166 <= 1
 0 <= _154T23prec164T23#167 <= 1
 0 <= _154T23prec165T23#168 <= 1
 0 <= _164T23prec165T23#169 <= 1
 0 <= _154T24prec164T24#170 <= 1
 0 <= _154T24prec165T24#171 <= 1
 0 <= _164T24prec165T24#172 <= 1
 0 <= _154T25prec164T25#173 <= 1
 0 <= _154T25prec165T25#174 <= 1
 0 <= _164T25prec165T25#175 <= 1
Binaries
 _164step1#20  _164step2#21  _164step3#22  _165step1#43  _165step2#44 
 _165step3#45  _89step1#60  _89step2#61  _89step3#62  _153step1#76 
 _153step2#77  _153step3#78  _154step1#86  _154step2#87  _154step3#88 
 _89T6prec153T6#89  _89T6prec164T6#90  _89T6prec165T6#91  _153T6prec164T6#92 
 _153T6prec165T6#93  _164T6prec165T6#94  _89T7prec153T7#95  _89T7prec164T7#96 
 _89T7prec165T7#97  _153T7prec164T7#98  _153T7prec165T7#99 
 _164T7prec165T7#100  _89T8prec153T8#101  _89T8prec164T8#102 
 _89T8prec165T8#103  _153T8prec164T8#104  _153T8prec165T8#105 
 _164T8prec165T8#106  _89T9prec153T9#107  _89T9prec164T9#108 
 _89T9prec165T9#109  _153T9prec164T9#110  _153T9prec165T9#111 
 _164T9prec165T9#112  _89T10prec153T10#113  _89T10prec164T10#114 
 _89T10prec165T10#115  _153T10prec164T10#116  _153T10prec165T10#117 
 _164T10prec165T10#118  _89T11prec153T11#119  _89T11prec164T11#120 
 _89T11prec165T11#121  _153T11prec164T11#122  _153T11prec165T11#123 
 _164T11prec165T11#124  _89T12prec153T12#125  _89T12prec164T12#126 
 _89T12prec165T12#127  _153T12prec164T12#128  _153T12prec165T12#129 
 _164T12prec165T12#130  _89T13prec153T13#131  _89T13prec164T13#132 
 _89T13prec165T13#133  _153T13prec164T13#134  _153T13prec165T13#135 
 _164T13prec165T13#136  _89T14prec153T14#137  _89T14prec164T14#138 
 _89T14prec165T14#139  _153T14prec164T14#140  _153T14prec165T14#141 
 _164T14prec165T14#142  _153T15prec164T15#143  _153T15prec165T15#144 
 _164T15prec165T15#145  _153T16prec164T16#146  _153T16prec165T16#147 
 _164T16prec165T16#148  _153T17prec164T17#149  _153T17prec165T17#150 
 _164T17prec165T17#151  _153T18prec164T18#152  _153T18prec165T18#153 
 _164T18prec165T18#154  _154T19prec164T19#155  _154T19prec165T19#156 
 _164T19prec165T19#157  _154T20prec164T20#158  _154T20prec165T20#159 
 _164T20prec165T20#160  _154T21prec164T21#161  _154T21prec165T21#162 
 _164T21prec165T21#163  _154T22prec164T22#164  _154T22prec165T22#165 
 _164T22prec165T22#166  _154T23prec164T23#167  _154T23prec165T23#168 
 _164T23prec165T23#169  _154T24prec164T24#170  _154T24prec165T24#171 
 _164T24prec165T24#172  _154T25prec164T25#173  _154T25prec165T25#174 
 _164T25prec165T25#175 
End
