docs/2022-03-21-ModelsBigM/BigMLazyCon_12.log
CPXPARAM_MIP_Tolerances_MIPGap                   0
Lazy constraint(s) or lazy constraint callback is present.
    Disabling dual reductions (CPX_PARAM_REDUCE) in presolve.
    Disabling non-linear reductions (CPX_PARAM_PRELINEAR) in presolve.
         Disabling repeat represolve because of lazy constraint/incumbent callback.
Tried aggregator 1 time.
MIP Presolve eliminated 158 rows and 2 columns.
Reduced MIP has 92 rows, 174 columns, and 194 nonzeros.
Reduced MIP has 100 binaries, 0 generals, 0 SOSs, and 0 indicators.
Presolve time = 0.00 sec. (0.16 ticks)
Probing time = 0.00 sec. (0.09 ticks)
Clique table members: 46.
MIP emphasis: balance optimality and feasibility.
MIP search method: traditional branch-and-cut.
Parallel mode: none, using 1 thread.
Root relaxation solution time = 0.00 sec. (0.10 ticks)

        Nodes                                         Cuts/
   Node  Left     Objective  IInf  Best Integer    Best Bound    ItCnt     Gap         Variable B NodeID Parent  Depth

      0     0        2.0000     5                      2.0000        5         
      0     0        7.0000     1                    Cuts: 46       46         
      0     0        7.0000     1                  MIRcuts: 2       50         
*     0+    0                            7.0000        7.0000             0.00%
      0     0        cutoff              7.0000        7.0000       50    0.00%                        0             0
Elapsed time = 0.00 sec. (1.65 ticks, tree = 0.01 MB, solutions = 1)

Clique cuts applied:  28
Implied bound cuts applied:  4
Mixed integer rounding cuts applied:  6
User cuts applied:  4

Root node processing (before b&c):
  Real time             =    0.02 sec. (1.66 ticks)
Sequential b&c:
  Real time             =    0.00 sec. (0.00 ticks)
                          ------------
Total (root+branch&cut) =    0.02 sec. (1.66 ticks)
